22 =mDIM
2 =nBlock
-9  7 =bLOCKsTRUCT
-0.15917, 0, 7.3638e-17, 0, 0.15306, 0, 0, 0, 0, 0, -7.3638e-17, 0, 0.69387, 0, 0.33333, 0, 0.15917, 0, 0, 0, 0, 0
0 1 1 1 -0.5
0 2 1 1 -1
1 1 1 1 -0.6277
1 1 2 2 -0.1635
1 1 3 3 0.21616
1 1 4 4 0.25433
1 1 5 5 0.625
1 1 6 6 0.064666
1 1 7 7 0.21616
1 1 8 8 -0.14425
1 1 9 9 0.17667
1 2 1 2 0.25
1 2 2 2 0.25
1 2 1 3 -0.27435
1 2 2 3 -0.079585
1 2 3 3 0.35334
1 2 1 4 -0.079585
1 2 2 4 0.5
1 2 1 5 -0.079585
1 2 2 5 -0.079585
1 2 3 5 -5.5511e-17
1 2 5 5 5.5511e-17
1 2 1 6 0.25
1 2 2 6 0.25
1 2 3 6 -0.079585
1 2 5 6 -0.079585
1 2 6 6 0.25
1 2 1 7 0.35334
2 1 2 2 -1
2 1 8 8 1
2 2 3 4 0.5
2 2 2 7 0.5
3 1 1 1 3.9513e-17
3 1 2 2 -0.125
3 1 3 3 -1.0601e-18
3 1 4 4 -0.125
3 1 5 5 0.375
3 1 6 6 -4.8143e-18
3 1 7 7 -1.0601e-18
3 1 8 8 4.1633e-17
3 1 9 9 -6.9389e-18
3 2 1 2 -0.25
3 2 2 2 -0.25
3 2 1 3 2.5635e-17
3 2 2 3 3.6819e-17
3 2 3 3 -1.3878e-17
3 2 1 4 3.6819e-17
3 2 2 4 0.5
3 2 1 5 3.6819e-17
3 2 2 5 2.005e-17
3 2 3 5 0.5
3 2 5 5 0.5
3 2 1 6 -0.25
3 2 2 6 -0.25
3 2 3 6 2.005e-17
3 2 5 6 1.4164e-17
3 2 6 6 -0.25
3 2 1 7 -1.3878e-17
4 1 4 4 -1
4 1 6 6 1
4 2 3 4 0.5
4 2 2 7 0.5
5 1 1 1 0.73617
5 1 2 2 -0.1056
5 1 3 3 0.56208
5 1 4 4 0.25866
5 1 5 5 7.082e-18
5 1 6 6 0.12933
5 1 7 7 0.56208
5 1 8 8 -0.052799
5 1 9 9 0.064666
5 2 1 2 2.8328e-18
5 2 2 2 2.8328e-18
5 2 1 3 0.86551
5 2 2 3 0.076532
5 2 3 3 0.12933
5 2 1 4 0.076532
5 2 2 4 5.6656e-18
5 2 1 5 0.076532
5 2 2 5 0.076532
5 2 3 5 -3.8519e-34
5 2 5 5 3.8519e-34
5 2 1 6 2.8328e-18
5 2 2 6 1.3878e-17
5 2 3 6 0.076532
5 2 5 6 0.076532
5 2 6 6 -1.3878e-17
5 2 1 7 0.12933
6 1 3 3 -1
6 1 7 7 -1
6 1 9 9 1
6 2 3 7 1
7 2 4 5 0.5
8 1 5 5 -1
8 2 4 4 1
9 2 4 6 0.5
10 1 8 8 -1
10 2 4 7 0.5
11 1 1 1 -3.95132e-17
11 1 2 2 0.125
11 1 3 3 1.06008e-18
11 1 4 4 0.125
11 1 5 5 -0.375
11 1 6 6 4.8143e-18
11 1 7 7 1.06008e-18
11 1 8 8 -4.16334e-17
11 1 9 9 6.93889e-18
11 2 1 2 0.25
11 2 2 2 0.25
11 2 1 3 -2.56354e-17
11 2 2 3 -3.68191e-17
11 2 3 3 1.38778e-17
11 2 1 4 -3.68191e-17
11 2 2 4 -0.5
11 2 1 5 -3.68191e-17
11 2 2 5 -2.00499e-17
11 2 3 5 0.5
11 2 5 5 0.5
11 2 1 6 0.25
11 2 2 6 0.25
11 2 3 6 -2.00499e-17
11 2 5 6 -1.4164e-17
11 2 6 6 0.25
11 2 1 7 1.38778e-17
12 2 4 5 0.5
13 1 1 1 -0.0581333
13 1 2 2 0.211198
13 1 3 3 -0.417062
13 1 4 4 0.482673
13 1 5 5 -1.4164e-17
13 1 6 6 0.241336
13 1 7 7 -0.417062
13 1 8 8 0.105599
13 1 9 9 -0.129332
13 2 1 2 -5.66558e-18
13 2 2 2 -5.66558e-18
13 2 1 3 -0.316797
13 2 2 3 0.346935
13 2 3 3 -0.258664
13 2 1 4 0.346935
13 2 2 4 -1.13312e-17
13 2 1 5 0.346935
13 2 2 5 0.346935
13 2 3 5 1.54074e-33
13 2 5 5 -1.54074e-33
13 2 1 6 -5.66558e-18
13 2 2 6 -2.77556e-17
13 2 3 6 0.346935
13 2 5 6 0.346935
13 2 6 6 2.77556e-17
13 2 1 7 -0.258664
14 2 5 7 0.5
15 1 1 1 -0.816497
15 1 2 2 0.333333
15 1 3 3 0.816497
15 1 4 4 2.27826e-17
15 1 5 5 -8.49837e-17
15 1 6 6 1.98897e-17
15 1 7 7 0.816497
15 1 8 8 0.166667
15 1 9 9 0.408248
15 2 1 2 -3.39935e-17
15 2 2 2 -3.39935e-17
15 2 1 3 -8.11266e-17
15 2 2 3 0.166667
15 2 3 3 0.816497
15 2 1 4 0.166667
15 2 2 4 -6.7987e-17
15 2 1 5 0.166667
15 2 2 5 0.166667
15 2 3 5 6.16298e-33
15 2 5 5 -6.16298e-33
15 2 1 6 -3.39935e-17
15 2 3 6 0.166667
15 2 5 6 0.166667
15 2 6 6 8.32667e-17
15 2 1 7 0.816497
16 2 4 6 0.5
17 1 1 1 0.627695
17 1 2 2 0.413502
17 1 3 3 -0.216164
17 1 4 4 -0.00433179
17 1 5 5 0.625
17 1 6 6 -0.0646659
17 1 7 7 -0.216164
17 1 8 8 0.144251
17 1 9 9 -0.176671
17 2 1 2 0.25
17 2 2 2 0.25
17 2 1 3 0.274354
17 2 2 3 0.079585
17 2 3 3 -0.353341
17 2 1 4 0.079585
17 2 2 4 0.5
17 2 1 5 0.079585
17 2 2 5 0.079585
17 2 3 5 -5.55112e-17
17 2 5 5 5.55112e-17
17 2 1 6 0.25
17 2 2 6 0.25
17 2 3 6 0.079585
17 2 5 6 0.079585
17 2 6 6 0.25
17 2 1 7 -0.353341
18 2 6 7 0.5
19 2 5 7 0.5
20 1 6 6 -1
20 2 4 7 0.5
21 2 6 7 0.5
22 1 9 9 -1
22 2 7 7 1
